Solving original (integer) problem with strategy gdp.hull_exact...
--- Job model.gms Start 02/16/26 16:40:14 52.2.0 d8e408be LEX-LEG x86 64bit/Linux
--- Applying:
    /package/gams/52.2/gmsprmun.txt
--- GAMS Parameters defined
    Input /local/scratch/a/sgusev/repos/k_means/data/gams_scip_gdp.hull_exact/no_mode/2026-02-16_16-40-13/original/model.gms
    Output /local/scratch/a/sgusev/repos/k_means/data/gams_scip_gdp.hull_exact/no_mode/2026-02-16_16-40-13/original/output.lst
    ScrDir /local/scratch/a/sgusev/repos/k_means/data/gams_scip_gdp.hull_exact/no_mode/2026-02-16_16-40-13/original/225a/
    SysDir /package/gams/52.2/
    CurDir /local/scratch/a/sgusev/repos/k_means/data/gams_scip_gdp.hull_exact/no_mode/2026-02-16_16-40-13/original/
    LogOption 3
    AppendLog 1
Licensee: David Bernal / SECQUOIA Research Group         G251008+0003Ac-GEN
          Purdue University, Davidson School of Chemical EngineeringDCE4838
          225a/gamslice.dat
          5a82958a-fbca-4a23
          node:66820903 mem:995 cores:48 ipport:49389 v:2                  
          Evaluation license: Not for commercial or production use
          The time-limited license stops working on : Jun 30, 2027
System information: 48 physical cores and 995 Gb physical memory detected
GAMS 52.2.0   Copyright (C) 1987-2025 GAMS Development. All rights reserved
--- Starting compilation
--- model.gms(5015) 2 Mb
--- $echo File /local/scratch/a/sgusev/repos/k_means/data/gams_scip_gdp.hull_exact/no_mode/2026-02-16_16-40-13/original/scip.opt
--- model.gms(7330) 2 Mb
--- Starting execution: elapsed 0:00:00.025
--- model.gms(5025) 3 Mb
--- Generating MINLP model GAMS_MODEL
--- model.gms(5029) 6 Mb
---   1,534 rows  714 columns  3,713 non-zeroes
---   2,380 nl-code  408 nl-non-zeroes
---   68 discrete-columns
--- Range statistics (absolute non-zero finite values)
--- RHS       [min, max] : [ 1.000E+00, 1.000E+00] - Zero values observed as well
--- Bound     [min, max] : [ 1.000E+00, 1.360E+02] - Zero values observed as well
--- Matrix    [min, max] : [ 1.000E+00, 1.360E+02] - Zero values observed as well
--- model.gms(5029) 4 Mb
--- Executing SCIP (Solvelink=5): elapsed 0:00:00.032

SCIP             52.2.0 d8e408be Dec 8, 2025           LEG x86 64bit/Linux    
SCIP version 9.2.4 (a94f778ac8)
Copyright (c) 2002-2025 Zuse Institute Berlin (ZIB)

External libraries: 
  CPLEX 22.1.2.0       Linear Programming Solver developed by IBM (www.cplex.com)
  CppAD 20180000.0     Algorithmic Differentiation of C++ algorithms developed by B. Bell (github.com/coin-or/CppAD)
  PaPILO 2.4.4         parallel presolve for integer and linear optimization (github.com/scipopt/papilo) (built with TBB) [GitHash: 7c826d50]
  Nauty 2.8.9          Computing Graph Automorphism Groups by Brendan D. McKay (users.cecs.anu.edu.au/~bdm/nauty)
  sassy 1.1            Symmetry preprocessor by Markus Anders (github.com/markusa4/sassy)
  Ipopt 3.14.19        Interior Point Optimizer developed by A. Waechter et.al. (github.com/coin-or/Ipopt)

reading option file /local/scratch/a/sgusev/repos/k_means/data/gams_scip_gdp.hull_exact/no_mode/2026-02-16_16-40-13/original/scip.opt
non-default parameter settings:
limits/time = 300
limits/gap = 1e-06
limits/absgap = 1e-10
lp/threads = 1
misc/printreason = FALSE
numerics/dualfeastol = 1e-06
parallel/maxnthreads = 1
nlpi/ipopt/linear_solver = "ma27"
nlpi/ipopt/linear_system_scaling = "mc19"

original problem has 713 variables (68 bin, 0 int, 645 cont) and 1533 constraints

all 1 solutions given by solution candidate storage are infeasible

presolving:
(round 1, fast)       17 del vars, 0 del conss, 0 add conss, 0 chg bounds, 0 chg sides, 0 chg coeffs, 0 upgd conss, 0 impls, 17 clqs
(round 2, fast)       17 del vars, 0 del conss, 0 add conss, 0 chg bounds, 17 chg sides, 0 chg coeffs, 0 upgd conss, 0 impls, 17 clqs
(round 3, exhaustive) 17 del vars, 0 del conss, 0 add conss, 0 chg bounds, 17 chg sides, 0 chg coeffs, 1173 upgd conss, 0 impls, 17 clqs
   (0.0s) probing cycle finished: starting next cycle
   (0.0s) symmetry computation started: requiring (bin +, int +, cont +), (fixed: bin -, int -, cont -)
   (0.0s) no symmetry present (symcode time: 0.00)
presolving (4 rounds: 4 fast, 2 medium, 2 exhaustive):
 17 deleted vars, 0 deleted constraints, 0 added constraints, 0 tightened bounds, 0 added holes, 17 changed sides, 0 changed coefficients
 2992 implications, 17 cliques
presolved problem has 696 variables (68 bin, 0 int, 0 impl, 628 cont) and 1533 constraints
   1156 constraints of type <varbound>
     17 constraints of type <setppc>
    292 constraints of type <linear>
     68 constraints of type <nonlinear>
Presolving Time: 0.05

 time | node  | left  |LP iter|LP it/n|mem/heur|mdpt |vars |cons |rows |cuts |sepa|confs|strbr|  dualbound   | primalbound  |  gap   | compl. 
  0.1s|     1 |     0 |   605 |     - |    18M |   0 |1376 |1533 |2417 |   0 |  0 |   0 |   0 | 0.000000e+00 |      --      |    Inf | unknown
o 0.2s|     1 |     0 |   868 |     - |feaspump|   0 |1376 |1533 |2417 |   0 |  0 |   0 |   0 | 0.000000e+00 | 1.670155e+01 |    Inf | unknown
  0.2s|     1 |     0 |  1244 |     - |    19M |   0 |1376 |1533 |2600 | 183 |  1 |   0 |   0 | 0.000000e+00 | 1.670155e+01 |    Inf | unknown
  0.2s|     1 |     0 |  1244 |     - |    19M |   0 |1376 |1533 |2583 | 183 |  1 |   0 |   0 | 0.000000e+00 | 1.670155e+01 |    Inf | unknown
  0.2s|     1 |     0 |  1476 |     - |    20M |   0 |1376 |1533 |2716 | 316 |  2 |   0 |   0 | 0.000000e+00 | 1.670155e+01 |    Inf | unknown
  0.3s|     1 |     0 |  1717 |     - |    20M |   0 |1376 |1533 |2863 | 463 |  3 |   0 |   0 | 0.000000e+00 | 1.670155e+01 |    Inf | unknown
  0.3s|     1 |     0 |  1907 |     - |    21M |   0 |1376 |1533 |2988 | 588 |  4 |   0 |   0 | 0.000000e+00 | 1.670155e+01 |    Inf | unknown
  0.4s|     1 |     0 |  2080 |     - |    21M |   0 |1376 |1533 |3072 | 672 |  5 |   0 |   0 | 0.000000e+00 | 1.670155e+01 |    Inf | unknown
  0.4s|     1 |     0 |  2233 |     - |    22M |   0 |1376 |1533 |3162 | 762 |  6 |   0 |   0 | 0.000000e+00 | 1.670155e+01 |    Inf | unknown
  0.5s|     1 |     0 |  2378 |     - |    22M |   0 |1376 |1533 |3257 | 857 |  7 |   0 |   0 | 0.000000e+00 | 1.670155e+01 |    Inf | unknown
  0.6s|     1 |     0 |  2552 |     - |    23M |   0 |1376 |1533 |3343 | 943 |  8 |   0 |   0 | 0.000000e+00 | 1.670155e+01 |    Inf | unknown
  0.6s|     1 |     0 |  2741 |     - |    23M |   0 |1376 |1533 |3413 |1013 |  9 |   0 |   0 | 0.000000e+00 | 1.670155e+01 |    Inf | unknown
  0.7s|     1 |     0 |  2882 |     - |    24M |   0 |1376 |1533 |3488 |1088 | 10 |   0 |   0 | 0.000000e+00 | 1.670155e+01 |    Inf | unknown
  0.8s|     1 |     0 |  3033 |     - |    25M |   0 |1376 |1533 |3567 |1167 | 11 |   0 |   0 | 0.000000e+00 | 1.670155e+01 |    Inf | unknown
  4.7s|     1 |     0 | 16130 |     - |    27M |   0 |1376 |1516 |3567 |1167 | 11 |   0 |   5 | 0.000000e+00 | 1.670155e+01 |    Inf | unknown
 time | node  | left  |LP iter|LP it/n|mem/heur|mdpt |vars |cons |rows |cuts |sepa|confs|strbr|  dualbound   | primalbound  |  gap   | compl. 
  4.8s|     1 |     0 | 16266 |     - |    27M |   0 |1376 |1516 |3641 |1241 | 12 |   0 |   5 | 0.000000e+00 | 1.670155e+01 |    Inf | unknown
  4.8s|     1 |     0 | 16311 |     - |    27M |   0 |1376 |1516 |2670 |1255 | 13 |   0 |   5 | 0.000000e+00 | 1.670155e+01 |    Inf | unknown
  4.9s|     1 |     0 | 16311 |     - |    27M |   0 |1376 |1516 |2670 |1255 | 13 |   0 |  10 | 0.000000e+00 | 1.670155e+01 |    Inf | unknown
  4.9s|     1 |     0 | 16421 |     - |    27M |   0 |1376 |1516 |2728 |1313 | 14 |   0 |  10 | 0.000000e+00 | 1.670155e+01 |    Inf | unknown
  5.0s|     1 |     0 | 16470 |     - |    27M |   0 |1376 |1516 |2746 |1331 | 15 |   0 |  10 | 0.000000e+00 | 1.670155e+01 |    Inf | unknown
  5.0s|     1 |     0 | 16470 |     - |    27M |   0 |1376 |1516 |2746 |1331 | 15 |   0 |  15 | 0.000000e+00 | 1.670155e+01 |    Inf | unknown
  5.1s|     1 |     0 | 16615 |     - |    28M |   0 |1376 |1516 |2801 |1386 | 16 |   0 |  15 | 0.000000e+00 | 1.670155e+01 |    Inf | unknown
  5.1s|     1 |     0 | 16668 |     - |    28M |   0 |1376 |1516 |2821 |1406 | 17 |   0 |  15 | 0.000000e+00 | 1.670155e+01 |    Inf | unknown
  5.1s|     1 |     0 | 16668 |     - |    28M |   0 |1376 |1516 |2821 |1406 | 17 |   0 |  20 | 0.000000e+00 | 1.670155e+01 |    Inf | unknown
  5.2s|     1 |     0 | 16805 |     - |    28M |   0 |1376 |1516 |2882 |1467 | 18 |   0 |  20 | 0.000000e+00 | 1.670155e+01 |    Inf | unknown
  5.2s|     1 |     0 | 16860 |     - |    28M |   0 |1376 |1516 |2434 |1490 | 19 |   0 |  20 | 0.000000e+00 | 1.670155e+01 |    Inf | unknown
  5.3s|     1 |     0 | 16860 |     - |    28M |   0 |1376 |1516 |2434 |1490 | 19 |   0 |  25 | 0.000000e+00 | 1.670155e+01 |    Inf | unknown
  5.3s|     1 |     0 | 16956 |     - |    28M |   0 |1376 |1516 |2486 |1542 | 20 |   0 |  25 | 0.000000e+00 | 1.670155e+01 |    Inf | unknown
  5.3s|     1 |     0 | 17024 |     - |    28M |   0 |1376 |1516 |2508 |1564 | 21 |   0 |  25 | 0.000000e+00 | 1.670155e+01 |    Inf | unknown
  5.4s|     1 |     0 | 17024 |     - |    29M |   0 |1376 |1516 |2508 |1564 | 21 |   0 |  30 | 0.000000e+00 | 1.670155e+01 |    Inf | unknown
 time | node  | left  |LP iter|LP it/n|mem/heur|mdpt |vars |cons |rows |cuts |sepa|confs|strbr|  dualbound   | primalbound  |  gap   | compl. 
  5.4s|     1 |     0 | 17177 |     - |    29M |   0 |1376 |1516 |2563 |1619 | 22 |   0 |  30 | 0.000000e+00 | 1.670155e+01 |    Inf | unknown
  5.4s|     1 |     0 | 17224 |     - |    29M |   0 |1376 |1516 |2593 |1649 | 23 |   0 |  30 | 0.000000e+00 | 1.670155e+01 |    Inf | unknown
  5.5s|     1 |     0 | 17224 |     - |    29M |   0 |1376 |1516 |2593 |1649 | 23 |   0 |  35 | 0.000000e+00 | 1.670155e+01 |    Inf | unknown
  5.5s|     1 |     0 | 17374 |     - |    29M |   0 |1376 |1516 |2666 |1722 | 24 |   0 |  35 | 0.000000e+00 | 1.670155e+01 |    Inf | unknown
  5.5s|     1 |     0 | 17436 |     - |    29M |   0 |1376 |1516 |2412 |1749 | 25 |   0 |  35 | 0.000000e+00 | 1.670155e+01 |    Inf | unknown
  5.6s|     1 |     0 | 17436 |     - |    29M |   0 |1376 |1516 |2412 |1749 | 25 |   0 |  40 | 0.000000e+00 | 1.670155e+01 |    Inf | unknown
  5.7s|     1 |     0 | 17562 |     - |    30M |   0 |1376 |1516 |2481 |1818 | 26 |   0 |  40 | 0.000000e+00 | 1.670155e+01 |    Inf | unknown
  5.7s|     1 |     0 | 17627 |     - |    30M |   0 |1376 |1516 |2507 |1844 | 27 |   0 |  40 | 0.000000e+00 | 1.670155e+01 |    Inf | unknown
  5.7s|     1 |     0 | 17627 |     - |    30M |   0 |1376 |1516 |2507 |1844 | 27 |   0 |  43 | 0.000000e+00 | 1.670155e+01 |    Inf | unknown
  5.7s|     1 |     0 | 17803 |     - |    30M |   0 |1376 |1516 |2558 |1895 | 28 |   0 |  43 | 0.000000e+00 | 1.670155e+01 |    Inf | unknown
  5.7s|     1 |     0 | 17843 |     - |    30M |   0 |1376 |1516 |2583 |1920 | 29 |   0 |  43 | 0.000000e+00 | 1.670155e+01 |    Inf | unknown
  5.8s|     1 |     0 | 17843 |     - |    30M |   0 |1376 |1516 |2583 |1920 | 29 |   0 |  46 | 0.000000e+00 | 1.670155e+01 |    Inf | unknown
  5.8s|     1 |     0 | 17970 |     - |    30M |   0 |1376 |1516 |2644 |1981 | 30 |   0 |  46 | 0.000000e+00 | 1.670155e+01 |    Inf | unknown
  5.8s|     1 |     0 | 18020 |     - |    30M |   0 |1376 |1516 |2436 |1998 | 31 |   0 |  46 | 0.000000e+00 | 1.670155e+01 |    Inf | unknown
  5.8s|     1 |     2 | 18020 |     - |    30M |   0 |1376 |1516 |2436 |1998 | 31 |   0 |  46 | 0.000000e+00 | 1.670155e+01 |    Inf | unknown
 time | node  | left  |LP iter|LP it/n|mem/heur|mdpt |vars |cons |rows |cuts |sepa|confs|strbr|  dualbound   | primalbound  |  gap   | compl. 
d 6.4s|    10 |    11 | 20969 |1793.9 |pscostdi|   9 |1376 |1516 |2825 |3315 |  6 |   0 | 120 | 0.000000e+00 | 1.593834e+01 |    Inf | unknown
d 6.9s|    23 |    24 | 25583 | 943.6 |fracdivi|   9 |1376 |1516 |2724 |5487 |  6 |   0 | 187 | 0.000000e+00 | 1.430481e+01 |    Inf | unknown
  9.6s|   100 |   101 | 61892 | 576.4 |    46M |  19 |1376 |1516 |3096 |  19k|  2 |   0 | 294 | 0.000000e+00 | 1.430481e+01 |    Inf | unknown
 12.7s|   200 |   201 |107118 | 514.0 |    57M |  20 |1376 |1516 |3089 |  33k|  7 |   0 | 294 | 0.000000e+00 | 1.430481e+01 |    Inf | unknown
 15.3s|   300 |   301 |143814 | 464.8 |    66M |  22 |1376 |1516 |3240 |  46k|  5 |   0 | 297 | 0.000000e+00 | 1.430481e+01 |    Inf | unknown
d16.8s|   360 |   361 |166414 | 450.1 |fracdivi|  22 |1376 |1516 |3262 |  54k|  6 |   0 | 297 | 0.000000e+00 | 1.288475e+01 |    Inf | unknown
 17.7s|   400 |   401 |182366 | 445.0 |    78M |  22 |1376 |1516 |3192 |  60k|  5 |   0 | 297 | 0.000000e+00 | 1.288475e+01 |    Inf | unknown
 20.6s|   500 |   501 |231300 | 453.9 |    90M |  22 |1376 |1516 |2995 |  76k|  2 |   1 | 300 | 0.000000e+00 | 1.288475e+01 |    Inf | unknown
 23.2s|   600 |   601 |269935 | 442.6 |    97M |  24 |1376 |1516 |3068 |  91k|  6 |   3 | 311 | 0.000000e+00 | 1.288475e+01 |    Inf | unknown
 25.8s|   700 |   701 |312170 | 439.7 |   109M |  24 |1376 |1516 |3145 | 106k|  6 |   3 | 318 | 0.000000e+00 | 1.288475e+01 |    Inf | unknown
 28.5s|   800 |   801 |360003 | 444.5 |   122M |  24 |1376 |1516 |3090 | 122k|  8 |   5 | 325 | 0.000000e+00 | 1.288475e+01 |    Inf | unknown
 31.0s|   900 |   901 |401819 | 441.6 |   131M |  24 |1376 |1516 |3306 | 137k|  5 |   5 | 331 | 0.000000e+00 | 1.288475e+01 |    Inf | unknown
 34.0s|  1000 |  1001 |448842 | 444.5 |   141M |  25 |1376 |1516 |3101 | 154k|  7 |   9 | 333 | 0.000000e+00 | 1.288475e+01 |    Inf | unknown
 36.7s|  1100 |  1101 |494887 | 445.9 |   150M |  25 |1376 |1516 |3073 | 169k|  8 |  11 | 341 | 0.000000e+00 | 1.288475e+01 |    Inf | unknown
 39.0s|  1200 |  1201 |531974 | 439.7 |   157M |  25 |1376 |1516 |3000 | 183k|  5 |  15 | 345 | 0.000000e+00 | 1.288475e+01 |    Inf | unknown
 time | node  | left  |LP iter|LP it/n|mem/heur|mdpt |vars |cons |rows |cuts |sepa|confs|strbr|  dualbound   | primalbound  |  gap   | compl. 
 41.8s|  1300 |  1301 |577323 | 440.7 |   164M |  25 |1376 |1516 |2956 | 199k|  7 |  16 | 354 | 0.000000e+00 | 1.288475e+01 |    Inf | unknown
 44.7s|  1400 |  1401 |626948 | 444.7 |   174M |  25 |1376 |1516 |3149 | 215k|  7 |  16 | 360 | 0.000000e+00 | 1.288475e+01 |    Inf | unknown
 47.4s|  1500 |  1501 |669570 | 443.5 |   181M |  25 |1376 |1516 |3141 | 230k|  7 |  24 | 362 | 0.000000e+00 | 1.288475e+01 |    Inf | unknown
L50.0s|  1599 |  1586 |708571 | 440.4 |    rins|  25 |1376 |1516 |3377 | 245k|  5 |  25 | 368 | 0.000000e+00 | 1.084929e+01 |    Inf | unknown
 50.0s|  1600 |  1587 |708606 | 440.1 |   187M |  25 |1376 |1516 |3047 | 245k|  2 |  25 | 368 | 0.000000e+00 | 1.084929e+01 |    Inf | unknown
 52.6s|  1700 |  1685 |749745 | 438.4 |   193M |  25 |1376 |1516 |2834 | 260k|  3 |  32 | 369 | 0.000000e+00 | 1.084929e+01 |    Inf | unknown
 55.3s|  1800 |  1785 |794493 | 438.9 |   199M |  25 |1376 |1516 |3381 | 275k|  5 |  33 | 369 | 0.000000e+00 | 1.084929e+01 |    Inf | unknown
 58.0s|  1900 |  1885 |835809 | 437.6 |   206M |  25 |1376 |1516 |2980 | 289k|  5 |  38 | 370 | 0.000000e+00 | 1.084929e+01 |    Inf | unknown
 60.1s|  2000 |  1985 |867492 | 431.5 |   210M |  25 |1376 |1516 |3336 | 301k|  6 |  43 | 370 | 0.000000e+00 | 1.084929e+01 |    Inf | unknown
 62.8s|  2100 |  2085 |909321 | 430.9 |   214M |  25 |1376 |1516 |3126 | 315k|  6 |  44 | 376 | 0.000000e+00 | 1.084929e+01 |    Inf | unknown
 65.2s|  2200 |  2185 |948678 | 429.2 |   219M |  25 |1376 |1516 |3121 | 330k|  3 |  46 | 377 | 0.000000e+00 | 1.084929e+01 |    Inf | unknown
 67.6s|  2300 |  2281 |982306 | 425.2 |   223M |  26 |1376 |1516 |2920 | 342k|  2 |  48 | 383 | 0.000000e+00 | 1.084929e+01 |    Inf | unknown
 70.0s|  2400 |  2381 |  1019k| 423.0 |   228M |  26 |1376 |1516 |2948 | 355k|  2 |  52 | 385 | 0.000000e+00 | 1.084929e+01 |    Inf | unknown
 72.8s|  2500 |  2481 |  1060k| 422.3 |   233M |  26 |1376 |1516 |3152 | 369k|  6 |  58 | 387 | 0.000000e+00 | 1.084929e+01 |    Inf | unknown
 75.3s|  2600 |  2581 |  1098k| 420.8 |   237M |  26 |1376 |1516 |3118 | 383k|  6 |  64 | 388 | 0.000000e+00 | 1.084929e+01 |    Inf | unknown
 time | node  | left  |LP iter|LP it/n|mem/heur|mdpt |vars |cons |rows |cuts |sepa|confs|strbr|  dualbound   | primalbound  |  gap   | compl. 
 78.1s|  2700 |  2681 |  1141k| 421.1 |   243M |  26 |1376 |1516 |3310 | 397k|  7 |  70 | 394 | 0.000000e+00 | 1.084929e+01 |    Inf | unknown
 80.8s|  2800 |  2781 |  1176k| 418.6 |   245M |  27 |1376 |1516 |3234 | 410k|  4 |  71 | 399 | 0.000000e+00 | 1.084929e+01 |    Inf | unknown
 82.9s|  2900 |  2879 |  1203k| 413.6 |   250M |  29 |1376 |1516 |3226 | 421k|  6 |  73 | 399 | 0.000000e+00 | 1.084929e+01 |    Inf | unknown
 85.0s|  3000 |  2977 |  1234k| 410.0 |   254M |  29 |1376 |1516 |3047 | 433k|  5 |  80 | 400 | 0.000000e+00 | 1.084929e+01 |    Inf | unknown
 87.6s|  3100 |  3077 |  1272k| 408.9 |   258M |  29 |1376 |1516 |3240 | 447k|  3 |  83 | 402 | 0.000000e+00 | 1.084929e+01 |    Inf | unknown
 90.0s|  3200 |  3175 |  1307k| 407.1 |   261M |  29 |1376 |1516 |3350 | 459k|  2 |  85 | 406 | 0.000000e+00 | 1.084929e+01 |    Inf | unknown
 92.4s|  3300 |  3273 |  1343k| 405.9 |   265M |  29 |1376 |1516 |3284 | 470k|  8 |  90 | 408 | 0.000000e+00 | 1.084929e+01 |    Inf | unknown
 94.7s|  3400 |  3373 |  1377k| 403.7 |   266M |  29 |1376 |1516 |2992 | 481k|  2 |  92 | 411 | 0.000000e+00 | 1.084929e+01 |    Inf | unknown
 96.6s|  3500 |  3473 |  1403k| 399.6 |   269M |  29 |1376 |1516 |3071 | 493k|  6 |  95 | 412 | 0.000000e+00 | 1.084929e+01 |    Inf | unknown
 98.7s|  3600 |  3573 |  1430k| 396.1 |   274M |  29 |1376 |1516 |3306 | 504k|  5 | 102 | 421 | 0.000000e+00 | 1.084929e+01 |    Inf | unknown
  101s|  3700 |  3671 |  1464k| 394.6 |   278M |  29 |1376 |1516 |3362 | 516k|  8 | 107 | 421 | 0.000000e+00 | 1.084929e+01 |    Inf | unknown
  103s|  3800 |  3771 |  1500k| 393.7 |   282M |  29 |1376 |1516 |3264 | 529k|  4 | 110 | 421 | 0.000000e+00 | 1.084929e+01 |    Inf | unknown
  106s|  3900 |  3867 |  1531k| 391.7 |   287M |  31 |1376 |1516 |2977 | 540k|  4 | 114 | 425 | 0.000000e+00 | 1.084929e+01 |    Inf | unknown
  108s|  4000 |  3965 |  1561k| 389.2 |   291M |  31 |1376 |1516 |2860 | 553k|  2 | 123 | 425 | 0.000000e+00 | 1.084929e+01 |    Inf | unknown
  110s|  4100 |  4059 |  1587k| 386.1 |   294M |  31 |1376 |1516 |3063 | 564k|  8 | 123 | 425 | 0.000000e+00 | 1.084929e+01 |    Inf | unknown
 time | node  | left  |LP iter|LP it/n|mem/heur|mdpt |vars |cons |rows |cuts |sepa|confs|strbr|  dualbound   | primalbound  |  gap   | compl. 
  112s|  4200 |  4157 |  1618k| 384.2 |   296M |  31 |1376 |1516 |3257 | 577k|  8 | 134 | 425 | 0.000000e+00 | 1.084929e+01 |    Inf | unknown
  114s|  4300 |  4255 |  1644k| 381.4 |   299M |  31 |1376 |1516 |3171 | 589k|  4 | 138 | 428 | 0.000000e+00 | 1.084929e+01 |    Inf | unknown
  116s|  4400 |  4353 |  1676k| 380.1 |   302M |  31 |1376 |1516 |3016 | 601k|  7 | 142 | 429 | 0.000000e+00 | 1.084929e+01 |    Inf | unknown
  118s|  4500 |  4453 |  1711k| 379.4 |   307M |  31 |1376 |1516 |2997 | 614k|  5 | 148 | 430 | 0.000000e+00 | 1.084929e+01 |    Inf | unknown
  121s|  4600 |  4549 |  1747k| 378.9 |   312M |  31 |1376 |1516 |3388 | 627k|  5 | 151 | 431 | 0.000000e+00 | 1.084929e+01 |    Inf | unknown
  123s|  4700 |  4641 |  1776k| 376.9 |   316M |  31 |1376 |1516 |2914 | 639k|  5 | 157 | 434 | 0.000000e+00 | 1.084929e+01 |    Inf | unknown
  125s|  4800 |  4733 |  1808k| 375.9 |   321M |  31 |1376 |1516 |3433 | 652k|  6 | 161 | 434 | 0.000000e+00 | 1.084929e+01 |    Inf | unknown
  127s|  4900 |  4827 |  1841k| 375.0 |   324M |  31 |1376 |1516 |3321 | 664k|  4 | 162 | 436 | 0.000000e+00 | 1.084929e+01 |    Inf | unknown
  129s|  5000 |  4923 |  1873k| 373.8 |   327M |  31 |1376 |1516 |2981 | 676k|  5 | 163 | 437 | 0.000000e+00 | 1.084929e+01 |    Inf | unknown
  131s|  5100 |  5013 |  1897k| 371.3 |   330M |  31 |1376 |1516 |2972 | 687k|  4 | 167 | 437 | 0.000000e+00 | 1.084929e+01 |    Inf | unknown
  134s|  5200 |  5111 |  1932k| 370.7 |   334M |  31 |1376 |1516 |3007 | 701k|  6 | 174 | 443 | 0.000000e+00 | 1.084929e+01 |    Inf | unknown
  136s|  5300 |  5203 |  1960k| 369.1 |   337M |  31 |1376 |1516 |3300 | 713k|  7 | 178 | 445 | 0.000000e+00 | 1.084929e+01 |    Inf | unknown
  138s|  5400 |  5297 |  1992k| 368.1 |   342M |  31 |1376 |1516 |3138 | 725k|  8 | 180 | 451 | 0.000000e+00 | 1.084929e+01 |    Inf | unknown
  141s|  5500 |  5395 |  2024k| 367.3 |   350M |  31 |1376 |1516 |3085 | 738k|  7 | 187 | 451 | 0.000000e+00 | 1.084929e+01 |    Inf | unknown
  143s|  5600 |  5489 |  2056k| 366.4 |   353M |  31 |1376 |1516 |3060 | 750k|  7 | 192 | 453 | 3.986571e-04 | 1.084929e+01 |  Large | unknown
 time | node  | left  |LP iter|LP it/n|mem/heur|mdpt |vars |cons |rows |cuts |sepa|confs|strbr|  dualbound   | primalbound  |  gap   | compl. 
  145s|  5700 |  5587 |  2085k| 365.1 |   356M |  31 |1376 |1516 |3334 | 762k|  2 | 192 | 453 | 4.376632e-04 | 1.084929e+01 |  Large | unknown
  147s|  5800 |  5685 |  2115k| 364.0 |   359M |  31 |1376 |1516 |3140 | 774k|  7 | 198 | 456 | 1.139077e-03 | 1.084929e+01 |  Large | unknown
  149s|  5900 |  5779 |  2141k| 362.2 |   363M |  31 |1376 |1516 |3154 | 785k|  7 | 202 | 458 | 1.139077e-03 | 1.084929e+01 |  Large | unknown
  151s|  6000 |  5873 |  2168k| 360.7 |   366M |  31 |1376 |1516 |3254 | 797k|  5 | 208 | 458 | 2.825819e-03 | 1.084929e+01 |  Large | unknown
  153s|  6100 |  5967 |  2192k| 358.7 |   368M |  31 |1376 |1516 |3321 | 808k|  6 | 213 | 458 | 2.825819e-03 | 1.084929e+01 |  Large | unknown
  155s|  6200 |  6063 |  2220k| 357.4 |   372M |  31 |1376 |1516 |3155 | 820k|  5 | 218 | 458 | 3.016292e-03 | 1.084929e+01 |  Large | unknown
  157s|  6300 |  6157 |  2247k| 356.1 |   375M |  31 |1376 |1516 |3338 | 831k|  1 | 227 | 458 | 6.045497e-03 | 1.084929e+01 |  Large | unknown
  159s|  6400 |  6251 |  2276k| 355.1 |   379M |  31 |1376 |1516 |3261 | 843k|  6 | 233 | 458 | 8.099403e-03 | 1.084929e+01 |  Large | unknown
  161s|  6500 |  6351 |  2310k| 354.8 |   381M |  31 |1376 |1516 |3247 | 856k|  5 | 239 | 462 | 1.226995e-02 | 1.084929e+01 |  Large | unknown
  163s|  6600 |  6439 |  2335k| 353.2 |   383M |  31 |1376 |1516 |3192 | 867k|  6 | 242 | 462 | 1.268552e-02 | 1.084929e+01 |  Large | unknown
  165s|  6700 |  6535 |  2362k| 351.9 |   386M |  31 |1376 |1516 |2882 | 879k|  5 | 248 | 468 | 1.268552e-02 | 1.084929e+01 |  Large | unknown
* 166s|  6778 |  6502 |  2377k| 350.1 |    LP  |  31 |1376 |1516 |3365 | 887k|  8 | 257 | 468 | 1.294323e-02 | 1.029619e+01 |  Large | unknown
* 166s|  6787 |  6382 |  2378k| 349.8 |    LP  |  32 |1376 |1516 |3496 | 887k|  9 | 257 | 468 | 1.294323e-02 | 9.881969e+00 |  Large | unknown
  166s|  6800 |  6391 |  2380k| 349.4 |   391M |  32 |1376 |1516 |2919 | 889k|  2 | 257 | 468 | 1.294323e-02 | 9.881969e+00 |  Large | unknown
* 168s|  6898 |  6414 |  2405k| 348.1 |    LP  |  32 |1376 |1516 |3440 | 900k| 10 | 264 | 468 | 1.294323e-02 | 9.668306e+00 |  Large |   6.41%
 time | node  | left  |LP iter|LP it/n|mem/heur|mdpt |vars |cons |rows |cuts |sepa|confs|strbr|  dualbound   | primalbound  |  gap   | compl. 
  168s|  6900 |  6416 |  2405k| 348.0 |   392M |  32 |1376 |1516 |3346 | 900k|  6 | 264 | 468 | 1.294323e-02 | 9.668306e+00 |  Large |   6.41%
  170s|  7000 |  6480 |  2428k| 346.3 |   393M |  32 |1376 |1516 |3027 | 910k|  1 | 271 | 469 | 1.598347e-02 | 9.668306e+00 |  Large |   6.48%
  172s|  7100 |  6556 |  2452k| 344.8 |   395M |  32 |1376 |1516 |3182 | 921k|  7 | 279 | 470 | 1.599499e-02 | 9.668306e+00 |  Large |   6.51%
  174s|  7200 |  6640 |  2477k| 343.4 |   399M |  32 |1376 |1516 |3045 | 932k|  2 | 287 | 471 | 2.095134e-02 | 9.668306e+00 |  Large |   6.54%
  175s|  7300 |  6722 |  2503k| 342.3 |   401M |  32 |1376 |1516 |3401 | 943k|  0 | 290 | 471 | 2.107772e-02 | 9.668306e+00 |  Large |   6.57%
  177s|  7400 |  6806 |  2529k| 341.2 |   403M |  32 |1376 |1516 |3473 | 955k|  6 | 297 | 473 | 2.107772e-02 | 9.668306e+00 |  Large |   6.61%
  179s|  7500 |  6892 |  2554k| 340.1 |   406M |  32 |1376 |1516 |3175 | 966k|  6 | 304 | 473 | 2.241472e-02 | 9.668306e+00 |  Large |   6.65%
  181s|  7600 |  6978 |  2575k| 338.3 |   410M |  32 |1376 |1516 |3024 | 977k|  2 | 318 | 473 | 3.165776e-02 | 9.668306e+00 |  Large |   6.69%
  182s|  7700 |  7064 |  2599k| 337.0 |   413M |  32 |1376 |1516 |3321 | 988k|  7 | 321 | 473 | 4.340869e-02 | 9.668306e+00 |  Large |   6.70%
  184s|  7800 |  7134 |  2617k| 335.0 |   414M |  32 |1376 |1516 |3215 | 998k|  4 | 327 | 473 | 4.340995e-02 | 9.668306e+00 |  Large |   6.73%
  186s|  7900 |  7216 |  2639k| 333.6 |   417M |  32 |1376 |1516 |3131 |1008k|  2 | 335 | 473 | 4.463172e-02 | 9.668306e+00 |  Large |   6.75%
  187s|  8000 |  7296 |  2657k| 331.6 |   420M |  32 |1376 |1516 |3288 |1017k|  5 | 340 | 473 | 4.463172e-02 | 9.668306e+00 |  Large |   6.78%
  189s|  8100 |  7368 |  2675k| 329.8 |   423M |  32 |1376 |1516 |3092 |1026k|  5 | 347 | 473 | 4.485173e-02 | 9.668306e+00 |  Large |   6.80%
  191s|  8200 |  7456 |  2709k| 329.8 |   426M |  32 |1376 |1516 |3362 |1039k|  4 | 354 | 475 | 5.033885e-02 | 9.668306e+00 |  Large |   6.84%
  193s|  8300 |  7534 |  2736k| 329.2 |   429M |  32 |1376 |1516 |3374 |1049k|  5 | 356 | 475 | 5.036618e-02 | 9.668306e+00 |  Large |   6.87%
 time | node  | left  |LP iter|LP it/n|mem/heur|mdpt |vars |cons |rows |cuts |sepa|confs|strbr|  dualbound   | primalbound  |  gap   | compl. 
  194s|  8400 |  7596 |  2756k| 327.6 |   435M |  32 |1376 |1516 |3045 |1058k|  6 | 366 | 475 | 5.036685e-02 | 9.668306e+00 |  Large |   6.89%
  196s|  8500 |  7672 |  2778k| 326.3 |   438M |  32 |1376 |1516 |3376 |1068k|  6 | 373 | 476 | 5.036784e-02 | 9.668306e+00 |  Large |   6.93%
  198s|  8600 |  7758 |  2800k| 325.2 |   440M |  32 |1376 |1516 |3191 |1077k|  5 | 384 | 476 | 5.209562e-02 | 9.668306e+00 |  Large |   6.94%
  199s|  8700 |  7820 |  2813k| 322.9 |   441M |  33 |1376 |1516 |3203 |1085k|  2 | 391 | 476 | 5.842920e-02 | 9.668306e+00 |  Large |   6.94%
* 199s|  8722 |  7422 |  2815k| 322.3 |    LP  |  33 |1376 |1516 |3436 |1086k|  7 | 392 | 476 | 5.842920e-02 | 9.131260e+00 |  Large |   7.21%
  200s|  8800 |  7464 |  2828k| 320.9 |   443M |  33 |1376 |1516 |3329 |1093k|  4 | 395 | 476 | 6.356392e-02 | 9.131260e+00 |  Large |   7.24%
  202s|  8900 |  7508 |  2844k| 319.1 |   443M |  33 |1376 |1516 |3142 |1101k|  6 | 401 | 476 | 8.482829e-02 | 9.131260e+00 |  Large |   7.27%
  203s|  9000 |  7580 |  2861k| 317.4 |   443M |  34 |1376 |1516 |3208 |1109k|  6 | 407 | 476 | 1.028644e-01 | 9.131260e+00 |8776.99%|   7.30%
  205s|  9100 |  7650 |  2886k| 316.7 |   443M |  34 |1376 |1516 |3237 |1119k|  2 | 419 | 477 | 1.046283e-01 | 9.131260e+00 |8627.33%|   7.31%
  207s|  9200 |  7724 |  2911k| 315.9 |   444M |  34 |1376 |1516 |3309 |1130k|  2 | 424 | 477 | 1.367709e-01 | 9.131260e+00 |6576.32%|   7.36%
  209s|  9300 |  7802 |  2933k| 315.0 |   446M |  34 |1376 |1516 |3331 |1140k|  7 | 429 | 477 | 1.862833e-01 | 9.131260e+00 |4801.81%|   7.38%
  210s|  9400 |  7890 |  2958k| 314.3 |   450M |  34 |1376 |1516 |2974 |1150k|  6 | 432 | 477 | 1.898389e-01 | 9.131260e+00 |4710.00%|   7.41%
  212s|  9500 |  7976 |  2983k| 313.6 |   452M |  34 |1376 |1516 |3330 |1161k|  7 | 440 | 477 | 1.898389e-01 | 9.131260e+00 |4710.00%|   7.43%
  214s|  9600 |  8052 |  3002k| 312.3 |   455M |  34 |1376 |1516 |3110 |1171k|  6 | 444 | 478 | 1.898389e-01 | 9.131260e+00 |4710.00%|   7.46%
  216s|  9700 |  8124 |  3023k| 311.2 |   457M |  34 |1376 |1516 |3315 |1181k|  2 | 451 | 479 | 1.898805e-01 | 9.131260e+00 |4708.95%|   7.49%
 time | node  | left  |LP iter|LP it/n|mem/heur|mdpt |vars |cons |rows |cuts |sepa|confs|strbr|  dualbound   | primalbound  |  gap   | compl. 
* 216s|  9711 |  8106 |  3025k| 311.1 |    LP  |  34 |1376 |1516 |3454 |1182k|  6 | 451 | 479 | 1.898929e-01 | 9.092008e+00 |4687.97%|   7.49%
  217s|  9800 |  8175 |  3047k| 310.5 |   460M |  34 |1376 |1516 |3043 |1191k|  6 | 458 | 482 | 2.122289e-01 | 9.092008e+00 |4184.06%|   7.52%
  219s|  9900 |  8247 |  3069k| 309.6 |   463M |  34 |1376 |1516 |2821 |1201k|  6 | 462 | 482 | 2.265273e-01 | 9.092008e+00 |3913.65%|   7.55%
  221s| 10000 |  8335 |  3098k| 309.4 |   469M |  34 |1376 |1516 |3263 |1214k|  4 | 469 | 490 | 2.308666e-01 | 9.092008e+00 |3838.21%|   7.59%
  223s| 10100 |  8405 |  3117k| 308.2 |   470M |  34 |1376 |1516 |3002 |1224k|  6 | 476 | 490 | 2.308666e-01 | 9.092008e+00 |3838.21%|   7.62%
  224s| 10200 |  8483 |  3137k| 307.2 |   472M |  34 |1376 |1516 |3111 |1234k|  6 | 481 | 490 | 2.422889e-01 | 9.092008e+00 |3652.55%|   7.63%
  226s| 10300 |  8545 |  3157k| 306.1 |   473M |  34 |1376 |1516 |3340 |1244k|  8 | 486 | 490 | 2.592461e-01 | 9.092008e+00 |3407.10%|   7.70%
* 226s| 10310 |  8527 |  3157k| 305.8 |    LP  |  34 |1376 |1516 |3444 |1244k|  7 | 486 | 490 | 2.592461e-01 | 9.076276e+00 |3401.03%|   7.70%
  227s| 10400 |  8601 |  3175k| 304.9 |   480M |  34 |1376 |1516 |3215 |1253k|  5 | 488 | 490 | 2.697401e-01 | 9.076276e+00 |3264.82%|   7.72%
  229s| 10500 |  8669 |  3192k| 303.6 |   481M |  34 |1376 |1516 |3110 |1261k|  2 | 492 | 492 | 3.297492e-01 | 9.076276e+00 |2652.48%|   7.72%
  230s| 10600 |  8721 |  3204k| 301.9 |   483M |  34 |1376 |1516 |3247 |1268k|  1 | 495 | 492 | 3.681281e-01 | 9.076276e+00 |2365.52%|   7.73%
  232s| 10700 |  8797 |  3231k| 301.6 |   485M |  34 |1376 |1516 |3376 |1278k|  8 | 500 | 492 | 3.748500e-01 | 9.076276e+00 |2321.31%|   7.75%
  234s| 10800 |  8883 |  3254k| 300.9 |   489M |  34 |1376 |1516 |3429 |1288k|  5 | 505 | 492 | 4.953688e-01 | 9.076276e+00 |1732.23%|   7.76%
  235s| 10900 |  8937 |  3268k| 299.5 |   491M |  40 |1376 |1516 |3167 |1295k|  3 | 512 | 492 | 4.953912e-01 | 9.076276e+00 |1732.14%|   7.76%
  236s| 11000 |  8979 |  3281k| 297.9 |   493M |  40 |1376 |1516 |3033 |1301k|  2 | 521 | 492 | 4.953912e-01 | 9.076276e+00 |1732.14%|   7.76%
 time | node  | left  |LP iter|LP it/n|mem/heur|mdpt |vars |cons |rows |cuts |sepa|confs|strbr|  dualbound   | primalbound  |  gap   | compl. 
  237s| 11100 |  9017 |  3290k| 296.1 |   495M |  40 |1376 |1516 |3255 |1307k|  7 | 525 | 492 | 4.953912e-01 | 9.076276e+00 |1732.14%|   7.76%
  239s| 11200 |  9067 |  3307k| 294.9 |   497M |  40 |1376 |1516 |3188 |1316k|  6 | 525 | 492 | 4.953922e-01 | 9.076276e+00 |1732.14%|   7.79%
* 240s| 11296 |  8754 |  3316k| 293.2 |    LP  |  40 |1376 |1516 |3568 |1321k|  7 | 527 | 492 | 4.953922e-01 | 8.777757e+00 |1671.88%|   7.88%
  240s| 11300 |  8754 |  3316k| 293.1 |   499M |  40 |1376 |1516 |3343 |1321k|  2 | 527 | 492 | 4.953922e-01 | 8.777757e+00 |1671.88%|   7.88%
  241s| 11400 |  8786 |  3331k| 291.9 |   499M |  40 |1376 |1516 |3352 |1329k|  7 | 529 | 492 | 4.953922e-01 | 8.777757e+00 |1671.88%|   7.92%
  242s| 11500 |  8858 |  3356k| 291.5 |   499M |  40 |1376 |1516 |3193 |1339k|  7 | 531 | 492 | 5.215667e-01 | 8.777757e+00 |1582.96%|   7.94%
  244s| 11600 |  8920 |  3380k| 291.1 |   499M |  40 |1376 |1516 |3098 |1349k|  7 | 533 | 497 | 5.374892e-01 | 8.777757e+00 |1533.10%|   7.95%
  245s| 11700 |  8954 |  3392k| 289.5 |   499M |  40 |1376 |1516 |3267 |1355k|  0 | 534 | 497 | 5.375052e-01 | 8.777757e+00 |1533.06%|   7.98%
  247s| 11800 |  9008 |  3409k| 288.6 |   501M |  40 |1376 |1516 |3294 |1364k|  4 | 537 | 498 | 5.462440e-01 | 8.777757e+00 |1506.93%|   8.01%
  248s| 11900 |  9060 |  3427k| 287.7 |   502M |  40 |1376 |1516 |3197 |1372k|  1 | 542 | 500 | 5.462440e-01 | 8.777757e+00 |1506.93%|   8.04%
  249s| 12000 |  9092 |  3440k| 286.3 |   504M |  40 |1376 |1516 |3204 |1379k|  6 | 546 | 500 | 5.465878e-01 | 8.777757e+00 |1505.92%|   8.07%
  251s| 12100 |  9148 |  3460k| 285.6 |   504M |  40 |1376 |1516 |3021 |1387k|  7 | 555 | 500 | 5.658009e-01 | 8.777757e+00 |1451.39%|   8.10%
  252s| 12200 |  9210 |  3479k| 284.9 |   508M |  40 |1376 |1516 |2857 |1397k|  6 | 560 | 500 | 5.730951e-01 | 8.777757e+00 |1431.64%|   8.13%
  254s| 12300 |  9282 |  3499k| 284.1 |   511M |  40 |1376 |1516 |3172 |1406k|  1 | 564 | 500 | 5.730951e-01 | 8.777757e+00 |1431.64%|   8.13%
  255s| 12400 |  9310 |  3508k| 282.6 |   511M |  40 |1376 |1516 |3202 |1412k|  2 | 566 | 500 | 5.730951e-01 | 8.777757e+00 |1431.64%|   8.13%
 time | node  | left  |LP iter|LP it/n|mem/heur|mdpt |vars |cons |rows |cuts |sepa|confs|strbr|  dualbound   | primalbound  |  gap   | compl. 
  256s| 12500 |  9334 |  3517k| 281.0 |   513M |  40 |1376 |1516 |3116 |1417k|  2 | 574 | 500 | 5.730951e-01 | 8.777757e+00 |1431.64%|   8.13%
  256s| 12600 |  9370 |  3526k| 279.5 |   515M |  40 |1376 |1516 |3221 |1423k|  5 | 576 | 500 | 5.730951e-01 | 8.777757e+00 |1431.64%|   8.13%
  257s| 12700 |  9394 |  3534k| 277.9 |   517M |  40 |1376 |1516 |3208 |1428k|  0 | 579 | 500 | 5.730951e-01 | 8.777757e+00 |1431.64%|   8.13%
  258s| 12800 |  9422 |  3543k| 276.4 |   517M |  40 |1376 |1516 |3104 |1433k|  2 | 580 | 500 | 5.730951e-01 | 8.777757e+00 |1431.64%|   8.14%
  259s| 12900 |  9440 |  3550k| 274.9 |   517M |  40 |1376 |1516 |3066 |1438k|  0 | 587 | 503 | 5.730951e-01 | 8.777757e+00 |1431.64%|   8.14%
  260s| 13000 |  9464 |  3560k| 273.6 |   518M |  40 |1376 |1516 |3340 |1445k|  7 | 590 | 504 | 5.765008e-01 | 8.777757e+00 |1422.59%|   8.14%
  261s| 13100 |  9490 |  3576k| 272.7 |   522M |  40 |1376 |1516 |3271 |1452k|  7 | 596 | 507 | 6.589517e-01 | 8.777757e+00 |1232.08%|   8.16%
  262s| 13200 |  9504 |  3583k| 271.1 |   522M |  40 |1376 |1516 |3216 |1456k|  2 | 598 | 508 | 6.589517e-01 | 8.777757e+00 |1232.08%|   8.16%
  263s| 13300 |  9554 |  3600k| 270.4 |   524M |  40 |1376 |1516 |3533 |1464k|  5 | 600 | 513 | 6.600533e-01 | 8.777757e+00 |1229.86%|   8.17%
  264s| 13400 |  9588 |  3609k| 269.1 |   524M |  40 |1376 |1516 |3518 |1470k|  6 | 601 | 513 | 6.600533e-01 | 8.777757e+00 |1229.86%|   8.17%
  266s| 13500 |  9646 |  3628k| 268.5 |   530M |  44 |1376 |1516 |3101 |1478k|  5 | 605 | 514 | 6.600586e-01 | 8.777757e+00 |1229.85%|   8.17%
  267s| 13600 |  9702 |  3645k| 267.7 |   533M |  44 |1376 |1516 |3138 |1486k|  6 | 613 | 514 | 6.600586e-01 | 8.777757e+00 |1229.85%|   8.19%
  268s| 13700 |  9764 |  3663k| 267.1 |   541M |  44 |1376 |1516 |3221 |1494k|  4 | 617 | 515 | 6.807935e-01 | 8.777757e+00 |1189.34%|   8.20%
  270s| 13800 |  9808 |  3676k| 266.1 |   543M |  44 |1376 |1516 |3245 |1501k|  2 | 626 | 517 | 6.807935e-01 | 8.777757e+00 |1189.34%|   8.22%
  271s| 13900 |  9854 |  3693k| 265.4 |   544M |  44 |1376 |1516 |3319 |1510k|  7 | 627 | 519 | 6.926271e-01 | 8.777757e+00 |1167.31%|   8.24%
 time | node  | left  |LP iter|LP it/n|mem/heur|mdpt |vars |cons |rows |cuts |sepa|confs|strbr|  dualbound   | primalbound  |  gap   | compl. 
  272s| 14000 |  9892 |  3708k| 264.6 |   545M |  44 |1376 |1516 |3051 |1517k|  1 | 631 | 520 | 6.942194e-01 | 8.777757e+00 |1164.41%|   8.28%
  273s| 14100 |  9932 |  3720k| 263.6 |   547M |  44 |1376 |1516 |3437 |1524k|  7 | 635 | 521 | 7.119451e-01 | 8.777757e+00 |1132.93%|   8.31%
  274s| 14200 |  9956 |  3728k| 262.3 |   547M |  44 |1376 |1516 |3482 |1529k|  0 | 640 | 525 | 7.142098e-01 | 8.777757e+00 |1129.02%|   8.31%
  277s| 14300 |  9978 |  3738k| 261.1 |   548M |  44 |1376 |1516 |3447 |1535k|  5 | 651 | 532 | 7.341364e-01 | 8.777757e+00 |1095.66%|   8.32%
  277s| 14400 | 10012 |  3747k| 259.9 |   551M |  44 |1376 |1516 |3473 |1540k|  4 | 656 | 535 | 7.341435e-01 | 8.777757e+00 |1095.65%|   8.32%
  279s| 14500 | 10056 |  3761k| 259.1 |   552M |  44 |1376 |1516 |3339 |1548k|  6 | 665 | 537 | 7.341435e-01 | 8.777757e+00 |1095.65%|   8.34%
  280s| 14600 | 10100 |  3778k| 258.5 |   554M |  44 |1376 |1516 |2989 |1555k|  7 | 671 | 537 | 7.430974e-01 | 8.777757e+00 |1081.24%|   8.37%
  281s| 14700 | 10184 |  3795k| 257.9 |   556M |  44 |1376 |1516 |3266 |1564k|  5 | 682 | 537 | 7.515035e-01 | 8.777757e+00 |1068.03%|   8.37%
* 282s| 14733 |  9905 |  3798k| 257.5 |    LP  |  44 |1376 |1516 |3535 |1566k|  9 | 682 | 537 | 7.515042e-01 | 8.610596e+00 |1045.78%|   8.56%
  283s| 14800 |  9944 |  3809k| 257.1 |   557M |  44 |1376 |1516 |3218 |1571k|  2 | 687 | 537 | 7.515169e-01 | 8.610596e+00 |1045.76%|   8.57%
  284s| 14900 |  9998 |  3824k| 256.3 |   557M |  44 |1376 |1516 |3131 |1578k|  2 | 692 | 539 | 7.515169e-01 | 8.610596e+00 |1045.76%|   8.57%
  285s| 15000 | 10034 |  3834k| 255.4 |   557M |  44 |1376 |1516 |3275 |1584k|  1 | 696 | 539 | 7.515169e-01 | 8.610596e+00 |1045.76%|   8.57%
  286s| 15100 | 10070 |  3844k| 254.3 |   557M |  44 |1376 |1516 |3219 |1590k|  4 | 697 | 539 | 7.515169e-01 | 8.610596e+00 |1045.76%|   8.58%
  287s| 15200 | 10130 |  3861k| 253.7 |   557M |  44 |1376 |1516 |3085 |1597k|  7 | 703 | 540 | 7.515182e-01 | 8.610596e+00 |1045.76%|   8.58%
  288s| 15300 | 10164 |  3874k| 252.9 |   558M |  44 |1376 |1516 |3242 |1603k|  0 | 708 | 541 | 7.605791e-01 | 8.610596e+00 |1032.11%|   8.59%
 time | node  | left  |LP iter|LP it/n|mem/heur|mdpt |vars |cons |rows |cuts |sepa|confs|strbr|  dualbound   | primalbound  |  gap   | compl. 
  289s| 15400 | 10202 |  3888k| 252.2 |   559M |  44 |1376 |1516 |3396 |1610k|  7 | 709 | 541 | 8.216537e-01 | 8.610596e+00 | 947.96%|   8.60%
  290s| 15500 | 10232 |  3904k| 251.6 |   560M |  44 |1376 |1516 |3354 |1616k|  1 | 712 | 541 | 8.306409e-01 | 8.610596e+00 | 936.62%|   8.61%
  292s| 15600 | 10270 |  3921k| 251.1 |   561M |  44 |1376 |1516 |3138 |1624k|  2 | 715 | 544 | 8.374339e-01 | 8.610596e+00 | 928.21%|   8.62%
  293s| 15700 | 10298 |  3932k| 250.2 |   563M |  44 |1376 |1516 |3349 |1629k|  5 | 715 | 544 | 8.374359e-01 | 8.610596e+00 | 928.21%|   8.63%
  294s| 15800 | 10344 |  3951k| 249.8 |   564M |  44 |1376 |1516 |3242 |1638k|  2 | 722 | 544 | 8.788732e-01 | 8.610596e+00 | 879.73%|   8.65%
  296s| 15900 | 10412 |  3971k| 249.5 |   566M |  44 |1376 |1516 |3158 |1647k|  1 | 732 | 544 | 8.788749e-01 | 8.610596e+00 | 879.73%|   8.67%
  296s| 16000 | 10440 |  3981k| 248.5 |   568M |  44 |1376 |1516 |3357 |1653k|  0 | 735 | 544 | 8.788749e-01 | 8.610596e+00 | 879.73%|   8.67%
  297s| 16100 | 10458 |  3990k| 247.6 |   568M |  44 |1376 |1516 |3476 |1659k|  5 | 742 | 544 | 8.788749e-01 | 8.610596e+00 | 879.73%|   8.67%
  298s| 16200 | 10480 |  3998k| 246.5 |   569M |  44 |1376 |1516 |3173 |1664k|  0 | 747 | 544 | 8.788749e-01 | 8.610596e+00 | 879.73%|   8.67%
  299s| 16300 | 10530 |  4011k| 245.8 |   571M |  44 |1376 |1516 |3213 |1672k|  6 | 751 | 544 | 8.788749e-01 | 8.610596e+00 | 879.73%|   8.67%

SCIP Status        : solving was interrupted [time limit reached]
Solving Time (sec) : 300.00
Solving Nodes      : 16387
Primal Bound       : +8.61059643710547e+00 (19 solutions)
Dual Bound         : +9.18292656422471e-01
Gap                : 837.67 %


--- Reading solution for model GAMS_MODEL
***
*** Solver did not provide marginals for model GAMS_MODEL
***
--- Executing after solve: elapsed 0:05:00.553
--- model.gms(5032) 4 Mb
--- model.gms(7330) 6 Mb
--- Putfile results /local/scratch/a/sgusev/repos/k_means/data/gams_scip_gdp.hull_exact/no_mode/2026-02-16_16-40-13/original/results.dat
--- Putfile statresults /local/scratch/a/sgusev/repos/k_means/data/gams_scip_gdp.hull_exact/no_mode/2026-02-16_16-40-13/original/resultsstat.dat
*** Status: Normal completion
--- Job model.gms Stop 02/16/26 16:45:14 elapsed 0:05:00.556
Original problem solved. Time taken: 301.22494411468506 seconds
Original objective value: 8.610596437105476
